$instance size is  200
letting capacity be  35102
letting items be new type enum { 
a1,a2,a3,a4,a5,a6,a7,a8,a9,a10,a11,a12,a13,a14,a15,a16,a17,a18,a19,a20,a21,a22,a23,a24,a25,a26,a27,a28,a29,a30,a31,a32,a33,a34,a35,a36,a37,a38,a39,a40,a41,a42,a43,a44,a45,a46,a47,a48,a49,a50,a51,a52,a53,a54,a55,a56,a57,a58,a59,a60,a61,a62,a63,a64,a65,a66,a67,a68,a69,a70,a71,a72,a73,a74,a75,a76,a77,a78,a79,a80,a81,a82,a83,a84,a85,a86,a87,a88,a89,a90,a91,a92,a93,a94,a95,a96,a97,a98,a99,a100,a101,a102,a103,a104,a105,a106,a107,a108,a109,a110,a111,a112,a113,a114,a115,a116,a117,a118,a119,a120,a121,a122,a123,a124,a125,a126,a127,a128,a129,a130,a131,a132,a133,a134,a135,a136,a137,a138,a139,a140,a141,a142,a143,a144,a145,a146,a147,a148,a149,a150,a151,a152,a153,a154,a155,a156,a157,a158,a159,a160,a161,a162,a163,a164,a165,a166,a167,a168,a169,a170,a171,a172,a173,a174,a175,a176,a177,a178,a179,a180,a181,a182,a183,a184,a185,a186,a187,a188,a189,a190,a191,a192,a193,a194,a195,a196,a197,a198,a199,a200
}
letting weight be function (
a1 --> 576,a2 --> 168,a3 --> 864,a4 --> 126,a5 --> 105,a6 --> 192,a7 --> 105,a8 --> 210,a9 --> 288,a10 --> 63,a11 --> 960,a12 --> 126,a13 --> 126,a14 --> 168,a15 --> 384,a16 --> 960,a17 --> 84,a18 --> 210,a19 --> 147,a20 --> 84,a21 --> 960,a22 --> 126,a23 --> 147,a24 --> 288,a25 --> 288,a26 --> 63,a27 --> 126,a28 --> 960,a29 --> 288,a30 --> 384,a31 --> 288,a32 --> 168,a33 --> 189,a34 --> 672,a35 --> 864,a36 --> 168,a37 --> 288,a38 --> 126,a39 --> 864,a40 --> 21,a41 --> 768,a42 --> 960,a43 --> 864,a44 --> 63,a45 --> 105,a46 --> 576,a47 --> 147,a48 --> 147,a49 --> 96,a50 --> 189,a51 --> 864,a52 --> 147,a53 --> 21,a54 --> 189,a55 --> 42,a56 --> 192,a57 --> 126,a58 --> 42,a59 --> 864,a60 --> 189,a61 --> 210,a62 --> 126,a63 --> 672,a64 --> 21,a65 --> 105,a66 --> 96,a67 --> 126,a68 --> 210,a69 --> 189,a70 --> 21,a71 --> 288,a72 --> 672,a73 --> 768,a74 --> 63,a75 --> 960,a76 --> 864,a77 --> 96,a78 --> 147,a79 --> 21,a80 --> 672,a81 --> 960,a82 --> 63,a83 --> 21,a84 --> 168,a85 --> 576,a86 --> 576,a87 --> 672,a88 --> 960,a89 --> 210,a90 --> 480,a91 --> 42,a92 --> 42,a93 --> 960,a94 --> 21,a95 --> 576,a96 --> 768,a97 --> 288,a98 --> 480,a99 --> 864,a100 --> 864,a101 --> 126,a102 --> 192,a103 --> 210,a104 --> 96,a105 --> 960,a106 --> 672,a107 --> 84,a108 --> 192,a109 --> 63,a110 --> 864,a111 --> 126,a112 --> 96,a113 --> 21,a114 --> 105,a115 --> 768,a116 --> 21,a117 --> 288,a118 --> 126,a119 --> 672,a120 --> 105,a121 --> 147,a122 --> 96,a123 --> 168,a124 --> 147,a125 --> 768,a126 --> 960,a127 --> 84,a128 --> 168,a129 --> 84,a130 --> 576,a131 --> 768,a132 --> 21,a133 --> 576,a134 --> 63,a135 --> 576,a136 --> 480,a137 --> 21,a138 --> 63,a139 --> 63,a140 --> 960,a141 --> 864,a142 --> 84,a143 --> 63,a144 --> 384,a145 --> 210,a146 --> 84,a147 --> 864,a148 --> 960,a149 --> 21,a150 --> 63,a151 --> 768,a152 --> 96,a153 --> 126,a154 --> 21,a155 --> 576,a156 --> 576,a157 --> 864,a158 --> 105,a159 --> 864,a160 --> 288,a161 --> 960,a162 --> 168,a163 --> 126,a164 --> 768,a165 --> 105,a166 --> 147,a167 --> 576,a168 --> 192,a169 --> 288,a170 --> 210,a171 --> 576,a172 --> 288,a173 --> 672,a174 --> 147,a175 --> 384,a176 --> 192,a177 --> 126,a178 --> 864,a179 --> 63,a180 --> 864,a181 --> 960,a182 --> 63,a183 --> 480,a184 --> 960,a185 --> 189,a186 --> 63,a187 --> 672,a188 --> 288,a189 --> 480,a190 --> 189,a191 --> 288,a192 --> 21,a193 --> 147,a194 --> 84,a195 --> 288,a196 --> 480,a197 --> 147,a198 --> 192,a199 --> 147,a200 --> 864
)
letting gain be function (
a1 --> 462,a2 --> 88,a3 --> 693,a4 --> 66,a5 --> 55,a6 --> 154,a7 --> 55,a8 --> 110,a9 --> 231,a10 --> 33,a11 --> 770,a12 --> 66,a13 --> 66,a14 --> 88,a15 --> 308,a16 --> 770,a17 --> 44,a18 --> 110,a19 --> 77,a20 --> 44,a21 --> 770,a22 --> 66,a23 --> 77,a24 --> 231,a25 --> 231,a26 --> 33,a27 --> 66,a28 --> 770,a29 --> 231,a30 --> 308,a31 --> 231,a32 --> 88,a33 --> 99,a34 --> 539,a35 --> 693,a36 --> 88,a37 --> 231,a38 --> 66,a39 --> 693,a40 --> 11,a41 --> 616,a42 --> 770,a43 --> 693,a44 --> 33,a45 --> 55,a46 --> 462,a47 --> 77,a48 --> 77,a49 --> 77,a50 --> 99,a51 --> 693,a52 --> 77,a53 --> 11,a54 --> 99,a55 --> 22,a56 --> 154,a57 --> 66,a58 --> 22,a59 --> 693,a60 --> 99,a61 --> 110,a62 --> 66,a63 --> 539,a64 --> 11,a65 --> 55,a66 --> 77,a67 --> 66,a68 --> 110,a69 --> 99,a70 --> 11,a71 --> 231,a72 --> 539,a73 --> 616,a74 --> 33,a75 --> 770,a76 --> 693,a77 --> 77,a78 --> 77,a79 --> 11,a80 --> 539,a81 --> 770,a82 --> 33,a83 --> 11,a84 --> 88,a85 --> 462,a86 --> 462,a87 --> 539,a88 --> 770,a89 --> 110,a90 --> 385,a91 --> 22,a92 --> 22,a93 --> 770,a94 --> 11,a95 --> 462,a96 --> 616,a97 --> 231,a98 --> 385,a99 --> 693,a100 --> 693,a101 --> 66,a102 --> 154,a103 --> 110,a104 --> 77,a105 --> 770,a106 --> 539,a107 --> 44,a108 --> 154,a109 --> 33,a110 --> 693,a111 --> 66,a112 --> 77,a113 --> 11,a114 --> 55,a115 --> 616,a116 --> 11,a117 --> 231,a118 --> 66,a119 --> 539,a120 --> 55,a121 --> 77,a122 --> 77,a123 --> 88,a124 --> 77,a125 --> 616,a126 --> 770,a127 --> 44,a128 --> 88,a129 --> 44,a130 --> 462,a131 --> 616,a132 --> 11,a133 --> 462,a134 --> 33,a135 --> 462,a136 --> 385,a137 --> 11,a138 --> 33,a139 --> 33,a140 --> 770,a141 --> 693,a142 --> 44,a143 --> 33,a144 --> 308,a145 --> 110,a146 --> 44,a147 --> 693,a148 --> 770,a149 --> 11,a150 --> 33,a151 --> 616,a152 --> 77,a153 --> 66,a154 --> 11,a155 --> 462,a156 --> 462,a157 --> 693,a158 --> 55,a159 --> 693,a160 --> 231,a161 --> 770,a162 --> 88,a163 --> 66,a164 --> 616,a165 --> 55,a166 --> 77,a167 --> 462,a168 --> 154,a169 --> 231,a170 --> 110,a171 --> 462,a172 --> 231,a173 --> 539,a174 --> 77,a175 --> 308,a176 --> 154,a177 --> 66,a178 --> 693,a179 --> 33,a180 --> 693,a181 --> 770,a182 --> 33,a183 --> 385,a184 --> 770,a185 --> 99,a186 --> 33,a187 --> 539,a188 --> 231,a189 --> 385,a190 --> 99,a191 --> 231,a192 --> 11,a193 --> 77,a194 --> 44,a195 --> 231,a196 --> 385,a197 --> 77,a198 --> 154,a199 --> 77,a200 --> 693
)
